Set parameter Username
Set parameter Threads to value 1
Academic license - for non-commercial use only - expires 2022-07-11
Set parameter TimeLimit to value 300
Gurobi Optimizer version 9.5.1 build v9.5.1rc2 (linux64)
Thread count: 2 physical cores, 4 logical processors, using up to 1 threads
Optimize a model with 880 rows, 820 columns and 3258 nonzeros
Model fingerprint: 0x9a44a2e9
Variable types: 20 continuous, 800 integer (800 binary)
Coefficient statistics:
  Matrix range     [1e+00, 4e+02]
  Objective range  [4e+01, 4e+02]
  Bounds range     [1e+00, 1e+00]
  RHS range        [1e+00, 1e+03]
Presolve removed 613 rows and 528 columns
Presolve time: 0.20s
Presolved: 267 rows, 292 columns, 1486 nonzeros
Variable types: 15 continuous, 277 integer (277 binary)

Root relaxation: objective 1.163000e+03, 501 iterations, 0.01 seconds (0.01 work units)

    Nodes    |    Current Node    |     Objective Bounds      |     Work
 Expl Unexpl |  Obj  Depth IntInf | Incumbent    BestBd   Gap | It/Node Time

     0     0 1163.00000    0   34          - 1163.00000      -     -    0s
     0     0 1163.00000    0   42          - 1163.00000      -     -    0s
H    0     0                    2489.0000000 1163.00000  53.3%     -    0s
H    0     0                    2162.0000000 1163.00000  46.2%     -    0s
     0     0 1172.12015    0   48 2162.00000 1172.12015  45.8%     -    0s
     0     0 1175.18149    0   48 2162.00000 1175.18149  45.6%     -    0s
     0     0 1256.83519    0   52 2162.00000 1256.83519  41.9%     -    0s
     0     0 1272.44897    0   45 2162.00000 1272.44897  41.1%     -    0s
     0     0 1277.34194    0   52 2162.00000 1277.34194  40.9%     -    0s
     0     0 1278.06557    0   54 2162.00000 1278.06557  40.9%     -    0s
     0     0 1278.06965    0   55 2162.00000 1278.06965  40.9%     -    0s
     0     0 1295.29967    0   48 2162.00000 1295.29967  40.1%     -    0s
H    0     0                    2114.0000000 1295.29967  38.7%     -    0s
     0     0 1296.36842    0   50 2114.00000 1296.36842  38.7%     -    0s
     0     0 1296.49577    0   50 2114.00000 1296.49577  38.7%     -    0s
     0     0 1296.58046    0   53 2114.00000 1296.58046  38.7%     -    0s
     0     0 1296.83229    0   52 2114.00000 1296.83229  38.7%     -    0s
     0     0 1296.86622    0   54 2114.00000 1296.86622  38.7%     -    0s
     0     0 1296.87271    0   54 2114.00000 1296.87271  38.7%     -    0s
     0     0 1298.53151    0   52 2114.00000 1298.53151  38.6%     -    0s
     0     0 1302.19408    0   53 2114.00000 1302.19408  38.4%     -    0s
     0     0 1303.71724    0   53 2114.00000 1303.71724  38.3%     -    0s
     0     0 1303.95212    0   53 2114.00000 1303.95212  38.3%     -    0s
     0     0 1307.93905    0   44 2114.00000 1307.93905  38.1%     -    0s
H    0     0                    1934.0000000 1307.93905  32.4%     -    0s
     0     0 1315.82605    0   48 1934.00000 1315.82605  32.0%     -    0s
     0     0 1318.60505    0   53 1934.00000 1318.60505  31.8%     -    0s
     0     0 1318.79412    0   60 1934.00000 1318.79412  31.8%     -    0s
     0     0 1318.85612    0   60 1934.00000 1318.85612  31.8%     -    0s
     0     0 1320.28252    0   57 1934.00000 1320.28252  31.7%     -    0s
     0     0 1321.29337    0   56 1934.00000 1321.29337  31.7%     -    0s
     0     0 1322.11638    0   57 1934.00000 1322.11638  31.6%     -    0s
     0     0 1322.21286    0   57 1934.00000 1322.21286  31.6%     -    0s
     0     0 1322.22444    0   57 1934.00000 1322.22444  31.6%     -    0s
     0     0 1322.59835    0   59 1934.00000 1322.59835  31.6%     -    0s
     0     0 1323.14814    0   48 1934.00000 1323.14814  31.6%     -    0s
     0     0 1323.19211    0   58 1934.00000 1323.19211  31.6%     -    0s
     0     0 1323.87966    0   60 1934.00000 1323.87966  31.5%     -    0s
     0     0 1323.99059    0   60 1934.00000 1323.99059  31.5%     -    0s
     0     0 1324.01814    0   60 1934.00000 1324.01814  31.5%     -    0s
     0     0 1324.07374    0   55 1934.00000 1324.07374  31.5%     -    0s
     0     0 1324.08124    0   55 1934.00000 1324.08124  31.5%     -    0s
     0     0 1324.08283    0   56 1934.00000 1324.08283  31.5%     -    0s
     0     0 1324.08283    0   53 1934.00000 1324.08283  31.5%     -    0s
     0     2 1355.22473    0   51 1934.00000 1355.22473  29.9%     -    0s
H   18    14                    1789.0000000 1355.36453  24.2%  26.4    0s
H   22    17                    1776.0000000 1355.36453  23.7%  21.9    0s
H   58    26                    1760.0000000 1362.83829  22.6%  20.6    0s
*   92    45              11    1732.0000000 1430.66900  17.4%  21.9    0s
*  273    44              15    1697.0000000 1523.87741  10.2%  19.7    0s

Cutting planes:
  Gomory: 1
  Cover: 39
  Implied bound: 4
  Clique: 14
  MIR: 59
  GUB cover: 19
  RLT: 2
  Relax-and-lift: 30

Explored 401 nodes (8603 simplex iterations) in 0.77 seconds (0.36 work units)
Thread count was 1 (of 4 available processors)

Solution count 9: 1697 1732 1760 ... 2489

Optimal solution found (tolerance 1.00e-04)
Best objective 1.697000000000e+03, best bound 1.697000000000e+03, gap 0.0000%
